=obj=                3823
X0                   0
X1                   0
X2                   1
X3                   0
X4                   0
X5                   0
X6                   0
X7                   0
X8                   9
X9                   0
X10                  1
X11                  0
X12                  0
X13                  0
X14                  0
X15                  11
X16                  0
X17                  24
X18                  0
X19                  0
X20                  0
X21                  0
X22                  0
X23                  0
X24                  0
X25                  0
X26                  0
X27                  0
X28                  0
X29                  0
X30                  0
X31                  0
X32                  0
X33                  0
X34                  0
X35                  0
X36                  0
X37                  10
X38                  0
X39                  0
X40                  0
X41                  0
X42                  0
X43                  0
X44                  0
X45                  0
X46                  0
X47                  0
X48                  0
X49                  0
X50                  1
X51                  0
X52                  0
X53                  0
X54                  0
X55                  0
X56                  0
X57                  0
X58                  0
X59                  0
X60                  2
X61                  0
X62                  0
X63                  0
X64                  0
X65                  0
X66                  0
X67                  11
X68                  0
X69                  0
X70                  3
X71                  0
X72                  0
X73                  0
X74                  0
X75                  4
X76                  0
X77                  0
X78                  0
X79                  0
X80                  0
X81                  0
X82                  0
X83                  38
X84                  0
X85                  0
X86                  0
X87                  0
X88                  0
X89                  16
X90                  0
X91                  0
X92                  0
X93                  0
X94                  0
X95                  0
X96                  9
X97                  0
X98                  0
X99                  0
X100                 0
X101                 0
X102                 0
X103                 0
X104                 0
X105                 0
X106                 0
X107                 0
X108                 0
X109                 0
X110                 0
X111                 0
X112                 2
X113                 0
X114                 0
X115                 0
X116                 0
X117                 0
X118                 0
X119                 8
X120                 0
X121                 0
X122                 0
X123                 0
X124                 0
X125                 0
X126                 7
X127                 0
X128                 0
X129                 0
X130                 0
X131                 0
X132                 0
X133                 0
X134                 0
X135                 0
X136                 0
X137                 0
X138                 0
X139                 0
X140                 15
X141                 0
X142                 0
X143                 0
X144                 0
X145                 0
X146                 0
X147                 0
X148                 0
X149                 0
X150                 0
X151                 0
X152                 0
X153                 0
X154                 0
X155                 18
X156                 0
X157                 0
X158                 0
X159                 0
X160                 0
X161                 0
X162                 0
X163                 0
X164                 0
X165                 0
X166                 0
X167                 0
X168                 0
X169                 0
X170                 0
X171                 0
X172                 0
X173                 0
X174                 19
X175                 0
X176                 0
X177                 0
X178                 0
X179                 0
X180                 0
X181                 0
X182                 0
X183                 0
X184                 0
X185                 0
X186                 0
X187                 38
X188                 0
X189                 0
X190                 0
X191                 0
X192                 0
X193                 0
X194                 0
X195                 0
X196                 0
X197                 0
X198                 0
X199                 0
X200                 0
X201                 0
X202                 0
X203                 0
X204                 0
X205                 0
X206                 0
X207                 6
X208                 0
X209                 0
X210                 0
X211                 0
X212                 0
X213                 12
X214                 0
X215                 0
X216                 0
X217                 0
X218                 0
X219                 0
X220                 0
X221                 1
X222                 0
X223                 0
X224                 0
X225                 0
X226                 0
X227                 0
X228                 0
X229                 0
X230                 38
X231                 0
X232                 0
X233                 0
X234                 0
X235                 0
X236                 0
X237                 0
X238                 0
X239                 0
X240                 0
X241                 0
X242                 0
X243                 0
X244                 2
X245                 0
X246                 0
X247                 0
X248                 0
X249                 0
X250                 0
X251                 0
X252                 0
X253                 0
X254                 4
X255                 0
Y0                   0
Y1                   0
Y2                   1
Y3                   0
Y4                   0
Y5                   0
Y6                   0
Y7                   0
Y8                   1
Y9                   0
Y10                  1
Y11                  0
Y12                  0
Y13                  0
Y14                  0
Y15                  1
Y16                  0
Y17                  1
Y18                  0
Y19                  0
Y20                  0
Y21                  0
Y22                  0
Y23                  0
Y24                  0
Y25                  0
Y26                  0
Y27                  0
Y28                  0
Y29                  0
Y30                  0
Y31                  0
Y32                  0
Y33                  0
Y34                  0
Y35                  0
Y36                  0
Y37                  1
Y38                  0
Y39                  0
Y40                  0
Y41                  0
Y42                  0
Y43                  0
Y44                  0
Y45                  0
Y46                  0
Y47                  0
Y48                  0
Y49                  0
Y50                  1
Y51                  0
Y52                  0
Y53                  0
Y54                  0
Y55                  0
Y56                  0
Y57                  0
Y58                  0
Y59                  0
Y60                  1
Y61                  0
Y62                  0
Y63                  0
Y64                  0
Y65                  0
Y66                  0
Y67                  1
Y68                  0
Y69                  0
Y70                  1
Y71                  0
Y72                  0
Y73                  0
Y74                  0
Y75                  1
Y76                  0
Y77                  0
Y78                  0
Y79                  0
Y80                  0
Y81                  0
Y82                  0
Y83                  1
Y84                  0
Y85                  0
Y86                  0
Y87                  0
Y88                  0
Y89                  1
Y90                  0
Y91                  0
Y92                  0
Y93                  0
Y94                  0
Y95                  0
Y96                  1
Y97                  0
Y98                  0
Y99                  0
Y100                 0
Y101                 0
Y102                 0
Y103                 0
Y104                 0
Y105                 0
Y106                 0
Y107                 0
Y108                 0
Y109                 0
Y110                 0
Y111                 0
Y112                 1
Y113                 0
Y114                 0
Y115                 0
Y116                 0
Y117                 0
Y118                 0
Y119                 1
Y120                 0
Y121                 0
Y122                 0
Y123                 0
Y124                 0
Y125                 0
Y126                 1
Y127                 0
Y128                 0
Y129                 0
Y130                 0
Y131                 0
Y132                 0
Y133                 0
Y134                 0
Y135                 0
Y136                 0
Y137                 0
Y138                 0
Y139                 0
Y140                 1
Y141                 0
Y142                 0
Y143                 0
Y144                 0
Y145                 0
Y146                 0
Y147                 0
Y148                 0
Y149                 0
Y150                 0
Y151                 0
Y152                 0
Y153                 0
Y154                 0
Y155                 1
Y156                 0
Y157                 0
Y158                 0
Y159                 0
Y160                 0
Y161                 0
Y162                 0
Y163                 0
Y164                 0
Y165                 0
Y166                 0
Y167                 0
Y168                 0
Y169                 0
Y170                 0
Y171                 0
Y172                 0
Y173                 0
Y174                 1
Y175                 0
Y176                 0
Y177                 0
Y178                 0
Y179                 0
Y180                 0
Y181                 0
Y182                 0
Y183                 0
Y184                 0
Y185                 0
Y186                 0
Y187                 1
Y188                 0
Y189                 0
Y190                 0
Y191                 0
Y192                 0
Y193                 0
Y194                 0
Y195                 0
Y196                 0
Y197                 0
Y198                 0
Y199                 0
Y200                 0
Y201                 0
Y202                 0
Y203                 0
Y204                 0
Y205                 0
Y206                 0
Y207                 1
Y208                 0
Y209                 0
Y210                 0
Y211                 0
Y212                 0
Y213                 1
Y214                 0
Y215                 0
Y216                 0
Y217                 0
Y218                 0
Y219                 0
Y220                 0
Y221                 1
Y222                 0
Y223                 0
Y224                 0
Y225                 0
Y226                 0
Y227                 0
Y228                 0
Y229                 0
Y230                 1
Y231                 0
Y232                 0
Y233                 0
Y234                 0
Y235                 0
Y236                 0
Y237                 0
Y238                 0
Y239                 0
Y240                 0
Y241                 0
Y242                 0
Y243                 0
Y244                 1
Y245                 0
Y246                 0
Y247                 0
Y248                 0
Y249                 0
Y250                 0
Y251                 0
Y252                 0
Y253                 0
Y254                 1
Y255                 0
